(define-fun-rec
  v2
  ((x Int) (y Int) (z Int)) Int (ite (<= x 0) z (v2 (- x 1) y z)))
(define-fun-rec
  u2
  ((x Int) (y Int) (z Int)) Int
  (ite (<= x 0) y (* (u2 (- x 1) y z) (v2 (- x 1) y z))))
(define-fun
  h5
  ((x Int)) Int (* x x))
(define-fun
  h4
  () Int (+ 2 (+ 2 2)))
(define-fun
  h2
  ((x Int)) Int (div x 2))
(define-fun
  h1
  ((x Int)) Int x)
(define-fun
  g3
  ((x Int)) Int (mod x 2))
(define-fun
  g2
  ((x Int) (y Int)) Int y)
(define-fun
  g0
  ((x Int)) Int x)
(define-fun
  f5
  ((x Int)) Int (* (* x x) x))
(define-fun-rec
  u5
  ((x Int) (y Int)) Int (ite (<= x 0) y (f5 (u5 (- x 1) y))))
(define-fun
  v5
  ((x Int)) Int (u5 1 (h5 x)))
(define-fun
  f4
  ((x Int)) Int (* x x))
(define-fun-rec
  u4
  ((x Int) (y Int)) Int (ite (<= x 0) y (f4 (u4 (- x 1) y))))
(define-fun
  v4
  () Int (u4 1 h4))
(define-fun
  f3
  () Int (+ 2 (+ 2 2)))
(define-fun
  u3
  ((x Int) (y Int)) Int (ite (<= x 0) y f3))
(define-fun
  v3
  ((x Int)) Int (u3 (g3 x) 1))
(define-fun
  w2
  ((x Int)) Int (u2 (h2 x) (v3 x) v4))
(define-fun
  fast
  ((x Int)) Int (- (w2 x) (v5 x)))
(define-fun
  f1
  ((x Int)) Int (* x x))
(define-fun-rec
  u1
  ((x Int) (y Int)) Int (ite (<= x 0) y (f1 (u1 (- x 1) y))))
(define-fun
  v1
  ((x Int)) Int (u1 2 x))
(define-fun
  f0
  ((x Int)) Int (* 2 (+ (+ x x) x)))
(define-fun-rec
  u0
  ((x Int) (y Int)) Int (ite (<= x 0) y (f0 (u0 (- x 1) y))))
(define-fun
  v0
  ((x Int)) Int (u0 x 1))
(define-fun
  small
  ((x Int)) Int (- (v0 x) (* (* (v1 x) x) x)))
(assert-not
  (forall ((c Int)) (or (not (>= c 0)) (= (small c) (fast c)))))
